%chk=C:\G09W\Final\energyzindo10.chk
# zindo=(nstates=10) geom=connectivity

Title Card Required

0 1
 C                  0.18650860   -1.20987284   -0.00000146
 C                 -1.19723462   -1.20436259    0.00000151
 C                 -1.91469216    0.00003966    0.00002694
 C                 -1.19723785    1.20440751    0.00002719
 C                  0.18653087    1.20989711    0.00000878
 C                  0.91720118    0.00002356   -0.00002459
 H                  0.70314973   -2.15908234    0.00002630
 H                 -1.73598398   -2.14472816    0.00002667
 H                 -1.73591977    2.14480988    0.00005907
 H                  0.70315296    2.15911882    0.00004646
 C                 -3.34173016   -0.00000080    0.00002517
 N                 -4.51007015   -0.00004184   -0.00004278
 N                  2.29635419   -0.00000669   -0.00013696
 C                  3.02766960    1.25921130    0.00001832
 H                  2.80027563    1.86147512    0.88817975
 H                  4.09704903    1.05168171   -0.00034449
 H                  2.79978998    1.86190036   -0.88772461
 C                  3.02759884   -1.25927220    0.00004791
 H                  2.79963747   -1.86197868   -0.88766089
 H                  4.09698380   -1.05179349   -0.00037171
 H                  2.80019112   -1.86148784    0.88824298

 1 2 1.5 6 1.5 7 1.0
 2 3 1.5 8 1.0
 3 4 1.5 11 1.0
 4 5 1.5 9 1.0
 5 6 1.5 10 1.0
 6 13 1.0
 7
 8
 9
 10
 11 12 3.0
 12
 13 14 1.0 18 1.0
 14 15 1.0 16 1.0 17 1.0
 15
 16
 17
 18 19 1.0 20 1.0 21 1.0
 19
 20
 21

